Number of options: 20
Size of codes: 15
14 5 6 11 16 4 3 2 1 8 9 0 11 17 1 
Size of probabilities: 15
0.08 0.37 0.03 0.07 0.45 0.13 0.31 0.33 0.18 0.06 0.14 0.28 0.11 0.22 0.25 
Number of assortments: 3
Sizes of assortments: 5 5 5 
-------------------Iteration: 1
CPXPARAM_MIP_Display                             1
CPXPARAM_MIP_Strategy_CallbackReducedLP          0
Tried aggregator 1 time.
LP Presolve eliminated 16 rows and 31 columns.
All rows and columns eliminated.
Presolve time = 0.00 sec. (0.01 ticks)
***********************************************************
Objective value of restricted master problem: 4.35
Lamda: 1 
***********************************************************
CPXPARAM_MIP_Display                             1
CPXPARAM_MIP_Strategy_CallbackReducedLP          0
Tried aggregator 2 times.
MIP Presolve eliminated 4750 rows and 0 columns.
Aggregator did 190 substitutions.
Reduced MIP has 2343 rows, 205 columns, and 6975 nonzeros.
Reduced MIP has 190 binaries, 0 generals, 0 SOSs, and 0 indicators.
Presolve time = 0.02 sec. (13.93 ticks)
Probing time = 0.00 sec. (0.35 ticks)
Tried aggregator 1 time.
Reduced MIP has 2343 rows, 205 columns, and 6975 nonzeros.
Reduced MIP has 190 binaries, 0 generals, 0 SOSs, and 0 indicators.
Presolve time = 0.00 sec. (3.44 ticks)
Probing time = 0.00 sec. (0.35 ticks)
MIP emphasis: balance optimality and feasibility.
MIP search method: dynamic search.
Parallel mode: deterministic, using up to 8 threads.

Node log . . .
Best integer =   0.000000e+00  Node =       0  Best node =  -1.500000e+01
Best integer =  -6.000000e+00  Node =       0  Best node =  -1.500000e+01
***********************************************************

***********************************************************
-------------------Iteration: 2
CPXPARAM_MIP_Display                             1
CPXPARAM_MIP_Strategy_CallbackReducedLP          0
Tried aggregator 1 time.
LP Presolve eliminated 9 rows and 18 columns.
Aggregator did 1 substitutions.
Reduced LP has 6 rows, 13 columns, and 18 nonzeros.
Presolve time = 0.00 sec. (0.01 ticks)
Initializing dual steep norms . . .

Iteration log . . .
Iteration:     1   Dual objective     =             2.020000
***********************************************************
Objective value of restricted master problem: 2.89
Lamda: 0.37 0.63 
***********************************************************
CPXPARAM_MIP_Display                             1
CPXPARAM_MIP_Strategy_CallbackReducedLP          0
Tried aggregator 2 times.
MIP Presolve eliminated 4750 rows and 0 columns.
Aggregator did 190 substitutions.
Reduced MIP has 2343 rows, 205 columns, and 6975 nonzeros.
Reduced MIP has 190 binaries, 0 generals, 0 SOSs, and 0 indicators.
Presolve time = 0.02 sec. (13.93 ticks)
Probing time = 0.00 sec. (0.35 ticks)
Tried aggregator 1 time.
Reduced MIP has 2343 rows, 205 columns, and 6975 nonzeros.
Reduced MIP has 190 binaries, 0 generals, 0 SOSs, and 0 indicators.
Presolve time = 0.00 sec. (3.44 ticks)
Probing time = 0.00 sec. (0.35 ticks)
MIP emphasis: balance optimality and feasibility.
MIP search method: dynamic search.
Parallel mode: deterministic, using up to 8 threads.

Node log . . .
Best integer =   0.000000e+00  Node =       0  Best node =  -1.200000e+01
Best integer =  -2.000000e+00  Node =       0  Best node =  -1.200000e+01
Best integer =  -6.000000e+00  Node =       0  Best node =  -6.000000e+00
***********************************************************

***********************************************************
-------------------Iteration: 3
CPXPARAM_MIP_Display                             1
CPXPARAM_MIP_Strategy_CallbackReducedLP          0
Tried aggregator 1 time.
LP Presolve eliminated 6 rows and 12 columns.
Reduced LP has 10 rows, 21 columns, and 30 nonzeros.
Presolve time = 0.00 sec. (0.01 ticks)
Initializing dual steep norms . . .

Iteration log . . .
Iteration:     1   Dual objective     =             1.490000
***********************************************************
Objective value of restricted master problem: 2.19
Lamda: 0.41 0.45 0.14 
***********************************************************
CPXPARAM_MIP_Display                             1
CPXPARAM_MIP_Strategy_CallbackReducedLP          0
Tried aggregator 2 times.
MIP Presolve eliminated 4750 rows and 0 columns.
Aggregator did 190 substitutions.
Reduced MIP has 2343 rows, 205 columns, and 6975 nonzeros.
Reduced MIP has 190 binaries, 0 generals, 0 SOSs, and 0 indicators.
Presolve time = 0.02 sec. (13.93 ticks)
Probing time = 0.00 sec. (0.35 ticks)
Tried aggregator 1 time.
Reduced MIP has 2343 rows, 205 columns, and 6975 nonzeros.
Reduced MIP has 190 binaries, 0 generals, 0 SOSs, and 0 indicators.
Presolve time = 0.01 sec. (3.44 ticks)
Probing time = 0.00 sec. (0.35 ticks)
MIP emphasis: balance optimality and feasibility.
MIP search method: dynamic search.
Parallel mode: deterministic, using up to 8 threads.

Node log . . .
Best integer =   0.000000e+00  Node =       0  Best node =  -9.000000e+00
Best integer =  -6.000000e+00  Node =       0  Best node =  -6.000000e+00
***********************************************************

***********************************************************
-------------------Iteration: 4
CPXPARAM_MIP_Display                             1
CPXPARAM_MIP_Strategy_CallbackReducedLP          0
Tried aggregator 1 time.
LP Presolve eliminated 3 rows and 6 columns.
Reduced LP has 13 rows, 28 columns, and 40 nonzeros.
Presolve time = 0.00 sec. (0.01 ticks)
Initializing dual steep norms . . .

Iteration log . . .
Iteration:     1   Dual objective     =             0.840000
***********************************************************
Objective value of restricted master problem: 1.47
Lamda: 0.37 0.24 0.14 0.25 
***********************************************************
CPXPARAM_MIP_Display                             1
CPXPARAM_MIP_Strategy_CallbackReducedLP          0
Tried aggregator 2 times.
MIP Presolve eliminated 4750 rows and 0 columns.
Aggregator did 190 substitutions.
Reduced MIP has 2343 rows, 205 columns, and 6975 nonzeros.
Reduced MIP has 190 binaries, 0 generals, 0 SOSs, and 0 indicators.
Presolve time = 0.02 sec. (13.93 ticks)
Probing time = 0.00 sec. (0.35 ticks)
Tried aggregator 1 time.
Reduced MIP has 2343 rows, 205 columns, and 6975 nonzeros.
Reduced MIP has 190 binaries, 0 generals, 0 SOSs, and 0 indicators.
Presolve time = 0.00 sec. (3.44 ticks)
Probing time = 0.00 sec. (0.35 ticks)
MIP emphasis: balance optimality and feasibility.
MIP search method: dynamic search.
Parallel mode: deterministic, using up to 8 threads.

Node log . . .
Best integer =   0.000000e+00  Node =       0  Best node =  -8.000000e+00
Best integer =  -4.000000e+00  Node =       0  Best node =  -4.000000e+00
***********************************************************

***********************************************************
-------------------Iteration: 5
CPXPARAM_MIP_Display                             1
CPXPARAM_MIP_Strategy_CallbackReducedLP          0
Tried aggregator 1 time.
LP Presolve eliminated 3 rows and 6 columns.
Reduced LP has 13 rows, 29 columns, and 44 nonzeros.
Presolve time = 0.00 sec. (0.01 ticks)

Iteration log . . .
Iteration:     1   Dual objective     =             0.450000
***********************************************************
Objective value of restricted master problem: 1.29
Lamda: 0.28 0.26 0.13 0.25 0.08 
***********************************************************
CPXPARAM_MIP_Display                             1
CPXPARAM_MIP_Strategy_CallbackReducedLP          0
Tried aggregator 2 times.
MIP Presolve eliminated 4750 rows and 0 columns.
Aggregator did 190 substitutions.
Reduced MIP has 2343 rows, 205 columns, and 6975 nonzeros.
Reduced MIP has 190 binaries, 0 generals, 0 SOSs, and 0 indicators.
Presolve time = 0.02 sec. (13.93 ticks)
Probing time = 0.00 sec. (0.35 ticks)
Tried aggregator 1 time.
Reduced MIP has 2343 rows, 205 columns, and 6975 nonzeros.
Reduced MIP has 190 binaries, 0 generals, 0 SOSs, and 0 indicators.
Presolve time = 0.00 sec. (3.44 ticks)
Probing time = 0.00 sec. (0.35 ticks)
MIP emphasis: balance optimality and feasibility.
MIP search method: dynamic search.
Parallel mode: deterministic, using up to 8 threads.

Node log . . .
Best integer =   0.000000e+00  Node =       0  Best node =  -8.000000e+00
Best integer =  -4.000000e+00  Node =       0  Best node =  -4.000000e+00
***********************************************************

***********************************************************
-------------------Iteration: 6
CPXPARAM_MIP_Display                             1
CPXPARAM_MIP_Strategy_CallbackReducedLP          0
Tried aggregator 1 time.
LP Presolve eliminated 3 rows and 6 columns.
Reduced LP has 13 rows, 30 columns, and 48 nonzeros.
Presolve time = 0.00 sec. (0.01 ticks)

Iteration log . . .
Iteration:     1   Dual objective     =             0.450000
***********************************************************
Objective value of restricted master problem: 1.27
Lamda: 0.28 0.26 0.125 0.245 0.085 0.005 
***********************************************************
CPXPARAM_MIP_Display                             1
CPXPARAM_MIP_Strategy_CallbackReducedLP          0
Tried aggregator 2 times.
MIP Presolve eliminated 4750 rows and 0 columns.
Aggregator did 190 substitutions.
Reduced MIP has 2343 rows, 205 columns, and 6975 nonzeros.
Reduced MIP has 190 binaries, 0 generals, 0 SOSs, and 0 indicators.
Presolve time = 0.02 sec. (13.93 ticks)
Probing time = 0.00 sec. (0.35 ticks)
Tried aggregator 1 time.
Reduced MIP has 2343 rows, 205 columns, and 6975 nonzeros.
Reduced MIP has 190 binaries, 0 generals, 0 SOSs, and 0 indicators.
Presolve time = 0.00 sec. (3.44 ticks)
Probing time = 0.00 sec. (0.35 ticks)
MIP emphasis: balance optimality and feasibility.
MIP search method: dynamic search.
Parallel mode: deterministic, using up to 8 threads.

Node log . . .
Best integer =   0.000000e+00  Node =       0  Best node =  -8.000000e+00
Best integer =  -4.000000e+00  Node =       0  Best node =  -4.000000e+00
***********************************************************

***********************************************************
-------------------Iteration: 7
CPXPARAM_MIP_Display                             1
CPXPARAM_MIP_Strategy_CallbackReducedLP          0
Tried aggregator 1 time.
LP Presolve eliminated 3 rows and 6 columns.
Reduced LP has 13 rows, 31 columns, and 52 nonzeros.
Presolve time = 0.00 sec. (0.01 ticks)

Iteration log . . .
Iteration:     1   Dual objective     =             0.450000
***********************************************************
Objective value of restricted master problem: 1.08
Lamda: 0.18 0.22 0.08 0.195 0.135 0.055 0.135 
***********************************************************
CPXPARAM_MIP_Display                             1
CPXPARAM_MIP_Strategy_CallbackReducedLP          0
Tried aggregator 2 times.
MIP Presolve eliminated 4750 rows and 0 columns.
Aggregator did 190 substitutions.
Reduced MIP has 2343 rows, 205 columns, and 6975 nonzeros.
Reduced MIP has 190 binaries, 0 generals, 0 SOSs, and 0 indicators.
Presolve time = 0.02 sec. (13.93 ticks)
Probing time = 0.00 sec. (0.35 ticks)
Tried aggregator 1 time.
Reduced MIP has 2343 rows, 205 columns, and 6975 nonzeros.
Reduced MIP has 190 binaries, 0 generals, 0 SOSs, and 0 indicators.
Presolve time = 0.00 sec. (3.44 ticks)
Probing time = 0.00 sec. (0.35 ticks)
MIP emphasis: balance optimality and feasibility.
MIP search method: dynamic search.
Parallel mode: deterministic, using up to 8 threads.

Node log . . .
Best integer =   0.000000e+00  Node =       0  Best node =  -6.000000e+00
Best integer =  -4.000000e+00  Node =       0  Best node =  -4.000000e+00
***********************************************************

***********************************************************
-------------------Iteration: 8
CPXPARAM_MIP_Display                             1
CPXPARAM_MIP_Strategy_CallbackReducedLP          0
Tried aggregator 1 time.
No LP presolve or aggregator reductions.
Presolve time = 0.00 sec. (0.01 ticks)

Iteration log . . .
Iteration:     1   Dual objective     =             0.000000
***********************************************************
Objective value of restricted master problem: 0.8
Lamda: 0.18 0.22 0.005 0.195 0.135 0.055 0.1 0.11 
***********************************************************
CPXPARAM_MIP_Display                             1
CPXPARAM_MIP_Strategy_CallbackReducedLP          0
Tried aggregator 2 times.
MIP Presolve eliminated 4750 rows and 0 columns.
Aggregator did 190 substitutions.
Reduced MIP has 2343 rows, 205 columns, and 6975 nonzeros.
Reduced MIP has 190 binaries, 0 generals, 0 SOSs, and 0 indicators.
Presolve time = 0.02 sec. (13.94 ticks)
Probing time = 0.00 sec. (0.35 ticks)
Tried aggregator 1 time.
Reduced MIP has 2343 rows, 205 columns, and 6975 nonzeros.
Reduced MIP has 190 binaries, 0 generals, 0 SOSs, and 0 indicators.
Presolve time = 0.00 sec. (3.44 ticks)
Probing time = 0.00 sec. (0.35 ticks)
MIP emphasis: balance optimality and feasibility.
MIP search method: dynamic search.
Parallel mode: deterministic, using up to 8 threads.

Node log . . .
Best integer =   0.000000e+00  Node =       0  Best node =  -4.000000e+00
Best integer =  -3.000000e+00  Node =       0  Best node =  -3.000000e+00
***********************************************************

***********************************************************
-------------------Iteration: 9
CPXPARAM_MIP_Display                             1
CPXPARAM_MIP_Strategy_CallbackReducedLP          0
Tried aggregator 1 time.
No LP presolve or aggregator reductions.
Presolve time = 0.00 sec. (0.01 ticks)

Iteration log . . .
Iteration:     1   Dual objective     =             0.000000
***********************************************************
Objective value of restricted master problem: 0.63
Lamda: 0.19 0.22 0 0.13 0.14 0.04 0.09 0.11 0.08 
***********************************************************
CPXPARAM_MIP_Display                             1
CPXPARAM_MIP_Strategy_CallbackReducedLP          0
Tried aggregator 2 times.
MIP Presolve eliminated 4750 rows and 0 columns.
Aggregator did 190 substitutions.
Reduced MIP has 2343 rows, 205 columns, and 6975 nonzeros.
Reduced MIP has 190 binaries, 0 generals, 0 SOSs, and 0 indicators.
Presolve time = 0.02 sec. (13.93 ticks)
Probing time = 0.00 sec. (0.35 ticks)
Tried aggregator 1 time.
Reduced MIP has 2343 rows, 205 columns, and 6975 nonzeros.
Reduced MIP has 190 binaries, 0 generals, 0 SOSs, and 0 indicators.
Presolve time = 0.00 sec. (3.44 ticks)
Probing time = 0.00 sec. (0.35 ticks)
MIP emphasis: balance optimality and feasibility.
MIP search method: dynamic search.
Parallel mode: deterministic, using up to 8 threads.

Node log . . .
Best integer =   0.000000e+00  Node =       0  Best node =  -7.000000e+00
Best integer =  -2.000000e+00  Node =       0  Best node =  -2.000000e+00
***********************************************************

***********************************************************
-------------------Iteration: 10
CPXPARAM_MIP_Display                             1
CPXPARAM_MIP_Strategy_CallbackReducedLP          0
Tried aggregator 1 time.
No LP presolve or aggregator reductions.
Presolve time = 0.00 sec. (0.01 ticks)

Iteration log . . .
Iteration:     1   Dual objective     =             0.000000
***********************************************************
Objective value of restricted master problem: 0.61
Lamda: 0.18 0.22 0 0.13 0.14 0.04 0.09 0.11 0.08 0.01 
***********************************************************
CPXPARAM_MIP_Display                             1
CPXPARAM_MIP_Strategy_CallbackReducedLP          0
Tried aggregator 2 times.
MIP Presolve eliminated 4750 rows and 0 columns.
Aggregator did 190 substitutions.
Reduced MIP has 2343 rows, 205 columns, and 6975 nonzeros.
Reduced MIP has 190 binaries, 0 generals, 0 SOSs, and 0 indicators.
Presolve time = 0.02 sec. (13.94 ticks)
Probing time = 0.00 sec. (0.35 ticks)
Tried aggregator 1 time.
Reduced MIP has 2343 rows, 205 columns, and 6975 nonzeros.
Reduced MIP has 190 binaries, 0 generals, 0 SOSs, and 0 indicators.
Presolve time = 0.00 sec. (3.44 ticks)
Probing time = 0.00 sec. (0.35 ticks)
MIP emphasis: balance optimality and feasibility.
MIP search method: dynamic search.
Parallel mode: deterministic, using up to 8 threads.

Node log . . .
Best integer =   0.000000e+00  Node =       0  Best node =  -4.000000e+00
Best integer =  -2.000000e+00  Node =       0  Best node =  -2.000000e+00
***********************************************************

***********************************************************
-------------------Iteration: 11
CPXPARAM_MIP_Display                             1
CPXPARAM_MIP_Strategy_CallbackReducedLP          0
Tried aggregator 1 time.
No LP presolve or aggregator reductions.
Presolve time = 0.00 sec. (0.01 ticks)

Iteration log . . .
Iteration:     1   Dual objective     =             0.000000
***********************************************************
Objective value of restricted master problem: 0.49
Lamda: 0.055 0.22 0 0.07 0.14 0.025 0.105 0.11 0.03 0.12 0.125 
***********************************************************
CPXPARAM_MIP_Display                             1
CPXPARAM_MIP_Strategy_CallbackReducedLP          0
Tried aggregator 2 times.
MIP Presolve eliminated 4750 rows and 0 columns.
Aggregator did 190 substitutions.
Reduced MIP has 2343 rows, 205 columns, and 6975 nonzeros.
Reduced MIP has 190 binaries, 0 generals, 0 SOSs, and 0 indicators.
Presolve time = 0.02 sec. (13.93 ticks)
Probing time = 0.00 sec. (0.35 ticks)
Tried aggregator 1 time.
Reduced MIP has 2343 rows, 205 columns, and 6975 nonzeros.
Reduced MIP has 190 binaries, 0 generals, 0 SOSs, and 0 indicators.
Presolve time = 0.00 sec. (3.44 ticks)
Probing time = 0.00 sec. (0.35 ticks)
MIP emphasis: balance optimality and feasibility.
MIP search method: dynamic search.
Parallel mode: deterministic, using up to 8 threads.

Node log . . .
Best integer =   0.000000e+00  Node =       0  Best node =  -9.000000e+00
Best integer =  -2.000000e+00  Node =       0  Best node =  -2.000000e+00
***********************************************************

***********************************************************
-------------------Iteration: 12
CPXPARAM_MIP_Display                             1
CPXPARAM_MIP_Strategy_CallbackReducedLP          0
Tried aggregator 1 time.
No LP presolve or aggregator reductions.
Presolve time = 0.00 sec. (0.01 ticks)

Iteration log . . .
Iteration:     1   Dual objective     =             0.000000
***********************************************************
Objective value of restricted master problem: 0.39
Lamda: 0.08 0.22 0 0.07 0.14 0 0.13 0.06 0.08 0.07 0.1 0.05 
***********************************************************
CPXPARAM_MIP_Display                             1
CPXPARAM_MIP_Strategy_CallbackReducedLP          0
Tried aggregator 2 times.
MIP Presolve eliminated 4750 rows and 0 columns.
Aggregator did 190 substitutions.
Reduced MIP has 2343 rows, 205 columns, and 6975 nonzeros.
Reduced MIP has 190 binaries, 0 generals, 0 SOSs, and 0 indicators.
Presolve time = 0.02 sec. (13.94 ticks)
Probing time = 0.00 sec. (0.35 ticks)
Tried aggregator 1 time.
Reduced MIP has 2343 rows, 205 columns, and 6975 nonzeros.
Reduced MIP has 190 binaries, 0 generals, 0 SOSs, and 0 indicators.
Presolve time = 0.00 sec. (3.44 ticks)
Probing time = 0.00 sec. (0.35 ticks)
MIP emphasis: balance optimality and feasibility.
MIP search method: dynamic search.
Parallel mode: deterministic, using up to 8 threads.

Node log . . .
Best integer =   0.000000e+00  Node =       0  Best node =  -4.000000e+00
Best integer =  -2.000000e+00  Node =       0  Best node =  -2.000000e+00
***********************************************************

***********************************************************
-------------------Iteration: 13
CPXPARAM_MIP_Display                             1
CPXPARAM_MIP_Strategy_CallbackReducedLP          0
Tried aggregator 1 time.
No LP presolve or aggregator reductions.
Presolve time = 0.00 sec. (0.01 ticks)

Iteration log . . .
Iteration:     1   Dual objective     =             0.000000
***********************************************************
Objective value of restricted master problem: 0.33
Lamda: 0.08 0.22 0 0.07 0.14 0 0.13 0.03 0.08 0.04 0.1 0.08 0.03 
***********************************************************
CPXPARAM_MIP_Display                             1
CPXPARAM_MIP_Strategy_CallbackReducedLP          0
Tried aggregator 2 times.
MIP Presolve eliminated 4750 rows and 0 columns.
Aggregator did 190 substitutions.
Reduced MIP has 2343 rows, 205 columns, and 6975 nonzeros.
Reduced MIP has 190 binaries, 0 generals, 0 SOSs, and 0 indicators.
Presolve time = 0.02 sec. (13.93 ticks)
Probing time = 0.00 sec. (0.35 ticks)
Tried aggregator 1 time.
Reduced MIP has 2343 rows, 205 columns, and 6975 nonzeros.
Reduced MIP has 190 binaries, 0 generals, 0 SOSs, and 0 indicators.
Presolve time = 0.00 sec. (3.44 ticks)
Probing time = 0.00 sec. (0.35 ticks)
MIP emphasis: balance optimality and feasibility.
MIP search method: dynamic search.
Parallel mode: deterministic, using up to 8 threads.

Node log . . .
Best integer =   0.000000e+00  Node =       0  Best node =  -4.000000e+00
Best integer =  -2.000000e+00  Node =       0  Best node =  -2.000000e+00
***********************************************************

***********************************************************
-------------------Iteration: 14
CPXPARAM_MIP_Display                             1
CPXPARAM_MIP_Strategy_CallbackReducedLP          0
Tried aggregator 1 time.
No LP presolve or aggregator reductions.
Presolve time = 0.00 sec. (0.01 ticks)

Iteration log . . .
Iteration:     1   Dual objective     =             0.000000
***********************************************************
Objective value of restricted master problem: 0.17
Lamda: 0 0.06 0 0.11 0.14 0 0.13 0.03 0.12 0 0.02 0.08 0.15 0.16 
***********************************************************
CPXPARAM_MIP_Display                             1
CPXPARAM_MIP_Strategy_CallbackReducedLP          0
Tried aggregator 2 times.
MIP Presolve eliminated 4750 rows and 0 columns.
Aggregator did 190 substitutions.
Reduced MIP has 2343 rows, 205 columns, and 6975 nonzeros.
Reduced MIP has 190 binaries, 0 generals, 0 SOSs, and 0 indicators.
Presolve time = 0.02 sec. (13.95 ticks)
Probing time = 0.00 sec. (0.35 ticks)
Tried aggregator 1 time.
Reduced MIP has 2343 rows, 205 columns, and 6975 nonzeros.
Reduced MIP has 190 binaries, 0 generals, 0 SOSs, and 0 indicators.
Presolve time = 0.00 sec. (3.44 ticks)
Probing time = 0.00 sec. (0.35 ticks)
MIP emphasis: balance optimality and feasibility.
MIP search method: dynamic search.
Parallel mode: deterministic, using up to 8 threads.

Node log . . .
Best integer =   2.000000e+00  Node =       0  Best node =  -3.000000e+00
Best integer =   0.000000e+00  Node =       0  Best node =  -3.000000e+00
Best integer =  -2.000000e+00  Node =       0  Best node =  -2.000000e+00
***********************************************************

***********************************************************
-------------------Iteration: 15
CPXPARAM_MIP_Display                             1
CPXPARAM_MIP_Strategy_CallbackReducedLP          0
Tried aggregator 1 time.
No LP presolve or aggregator reductions.
Presolve time = 0.00 sec. (0.01 ticks)

Iteration log . . .
Iteration:     1   Dual objective     =             0.000000
***********************************************************
Objective value of restricted master problem: 0.01
Lamda: 0 0.06 0 0.07 0.14 0 0.13 0.03 0.08 0.04 0.02 0.08 0.11 0.16 0.08 
***********************************************************
CPXPARAM_MIP_Display                             1
CPXPARAM_MIP_Strategy_CallbackReducedLP          0
Tried aggregator 2 times.
MIP Presolve eliminated 4750 rows and 0 columns.
Aggregator did 190 substitutions.
Reduced MIP has 2343 rows, 205 columns, and 6975 nonzeros.
Reduced MIP has 190 binaries, 0 generals, 0 SOSs, and 0 indicators.
Presolve time = 0.02 sec. (13.94 ticks)
Probing time = 0.00 sec. (0.35 ticks)
Tried aggregator 1 time.
Reduced MIP has 2343 rows, 205 columns, and 6975 nonzeros.
Reduced MIP has 190 binaries, 0 generals, 0 SOSs, and 0 indicators.
Presolve time = 0.00 sec. (3.44 ticks)
Probing time = 0.00 sec. (0.35 ticks)
MIP emphasis: balance optimality and feasibility.
MIP search method: dynamic search.
Parallel mode: deterministic, using up to 8 threads.

Node log . . .
Best integer =   0.000000e+00  Node =       0  Best node =  -4.000000e+00
Ranking data list: 
Ranking collect: 0 1 2 3 4 5 6 7 8 9 10 11 12 13 14 15 16 17 18 19 
Ranking collect: 19 18 17 16 15 14 13 12 11 10 9 8 7 6 5 4 3 2 1 0 
Ranking collect: 4 7 9 0 1 2 3 8 10 12 13 14 5 6 11 15 16 17 18 19 
Ranking collect: 2 1 0 3 4 7 8 9 10 11 5 6 12 13 14 15 16 17 18 19 
Ranking collect: 2 5 6 7 9 0 1 3 4 8 10 11 12 13 14 15 16 17 18 19 
Ranking collect: 4 1 0 2 3 5 6 7 8 9 10 11 12 13 14 15 16 17 18 19 
Ranking collect: 0 4 1 2 3 7 8 9 10 12 13 15 16 5 6 11 14 17 18 19 
Ranking collect: 3 6 5 7 10 11 0 1 2 4 8 9 12 13 14 15 16 17 18 19 
Ranking collect: 3 1 0 2 4 7 8 9 10 12 13 14 5 6 11 15 16 17 18 19 
Ranking collect: 0 2 1 3 4 5 6 7 8 9 10 11 12 13 14 15 16 17 18 19 
Ranking collect: 1 0 2 3 4 7 8 9 10 12 13 15 16 5 6 11 14 17 18 19 
Ranking collect: 2 3 4 5 6 7 8 10 12 13 15 11 0 17 1 9 14 16 18 19 
Ranking collect: 0 3 1 2 4 5 6 7 8 9 10 11 12 13 14 15 16 17 18 19 
Ranking collect: 17 0 1 2 3 4 7 8 10 12 13 16 11 14 5 6 15 9 18 19 
Ranking collect: 3 1 0 2 4 7 8 9 10 12 13 15 16 5 6 11 14 17 18 19 
